p cnf 8 27
-8 3 4 -2 0
8 1 5 -8 0
-7 -4 -1 6 0
8 6 -1 0
5 0
2 0
-6 3 0
1 -5 0
-8 2 -2 7 0
-7 0
1 4 -3 7 0
-8 2 4 0
8 -7 0
6 0
-5 4 0
-8 1 7 0
-8 -5 0
4 7 0
4 -3 -1 7 0
2 -4 0
-8 3 5 0
-8 -4 -1 0
-8 -3 7 0
-8 1 -5 -2 0
-1 0
5 0
-5 0
